46
75
60	10
59	18
58	15
57	14
56	18
55	11
54	18
53	20
52	15
51	18
50	14
49	15
48	24
47	10
46	9
45	11
44	8
43	17
42	22
41	25
40	21
39	15
38	15
37	19
36	20
35	23
34	14
33	20
32	16
31	20
30	21
29	17
28	20
27	16
26	16
25	15
24	14
23	22
22	18
21	17
20	20
19	15
18	16
17	5
16	9
15	14
